17	4
21	24	34	27	
0	0	0	0	0	3	2	3	4	
9	1	9	6	10	2	5	6	
4	3	7	0	7	3	12	16	17	
1	6	8	2	1	1	10	
8	7	5	8	2	3	7	8	17	
100	8	4	0	2	2	12	17	
100	6	0	8	9	3	9	13	17	
75	4	0	7	2	1	11	
225	4	4	0	4	3	14	17	17	
50	1	1	3	2	3	17	17	17	
100	0	2	0	10	2	15	17	
175	10	0	9	0	2	17	17	
2	2	2	3	0	1	15	
5	3	0	6	0	1	17	
8	0	6	7	1	2	17	17	
4	4	0	8	9	2	17	17	
0	0	0	0	0	0	
